
Gurobi 11.0.3 (mac64[x86]) logging started Tue Apr 15 15:01:31 2025

Set parameter LogFile to value "Results/SanityCheck/try_10_big.log"
Set parameter TimeLimit to value 84600
Set parameter Method to value 2
Set parameter Crossover to value 0
Set parameter BarHomogeneous to value 1
Set parameter BarConvTol to value 1e-10
Gurobi Optimizer version 11.0.3 build v11.0.3rc0 (mac64[x86] - Darwin 23.4.0 23E214)

CPU model: Intel(R) Core(TM) i7-1060NG7 CPU @ 1.20GHz
Thread count: 4 physical cores, 8 logical processors, using up to 8 threads

Optimize a model with 1496320 rows, 1917920 columns and 7073808 nonzeros
Model fingerprint: 0x30b18ac0
Coefficient statistics:
  Matrix range     [2e-01, 1e+00]
  Objective range  [6e-05, 5e+00]
  Bounds range     [0e+00, 0e+00]
  RHS range        [1e-02, 3e+03]
Presolve removed 1168160 rows and 1238560 columns (presolve time = 5s) ...
Presolve removed 1211600 rows and 1390512 columns
Presolve time: 8.19s
Presolved: 284720 rows, 527504 columns, 1879712 nonzeros
Ordering time: 2.17s

Barrier statistics:
 AA' NZ     : 2.697e+05
 Factor NZ  : 5.583e+06 (roughly 80 MB of memory)
 Factor Ops : 3.669e+09 (less than 1 second per iteration)
 Threads    : 4

                  Objective                Residual
Iter       Primal          Dual         Primal    Dual     Compl     Time
   0   9.18085893e+06  1.73153301e+11  1.54e+04 6.23e+03  4.19e+07    13s
   1  -1.45972470e+07  8.59337370e+10  5.15e+03 6.49e+03  1.33e+07    14s
   2  -1.64445900e+07  7.66023046e+09  1.11e+03 6.14e+02  1.65e+06    14s
   3  -1.56904913e+07  2.13330714e+09  6.92e+01 2.75e+01  1.09e+05    15s
   4  -8.07476763e+06  4.79636221e+08  8.05e+00 6.16e+00  1.48e+04    15s
   5  -3.90964004e+06  3.48138774e+07  4.60e-01 2.86e-01  7.43e+02    16s
   6  -1.32795669e+06  2.60095243e+06  5.45e-02 5.60e-02  6.62e+01    16s
   7  -5.03621837e+03  1.47957154e+05  1.30e-03 1.29e-03  2.45e+00    16s
   8   2.57949367e+04  4.95955722e+04  1.16e-04 1.08e-04  3.71e-01    17s
   9   3.00128356e+04  3.62503211e+04  2.20e-05 7.17e-06  9.19e-02    17s
  10   3.16357364e+04  3.34042991e+04  4.26e-06 1.01e-06  2.39e-02    17s
  11   3.21971889e+04  3.28253292e+04  1.18e-06 6.06e-13  7.94e-03    17s
  12   3.23944297e+04  3.26619624e+04  4.43e-07 2.32e-12  3.27e-03    17s
  13   3.24599194e+04  3.25972708e+04  2.32e-07 1.02e-11  1.65e-03    18s
  14   3.24836603e+04  3.25725953e+04  1.64e-07 6.65e-12  1.06e-03    18s
  15   3.25006855e+04  3.25585875e+04  1.15e-07 1.12e-11  6.88e-04    18s
  16   3.25254596e+04  3.25487930e+04  4.83e-08 8.86e-08  2.76e-04    18s
  17   3.25404647e+04  3.25443351e+04  7.41e-09 5.62e-12  4.57e-05    18s
  18   3.25425162e+04  3.25434853e+04  9.87e-08 3.22e-11  1.14e-05    19s
  19   3.25428896e+04  3.25432000e+04  3.56e-08 1.10e-09  3.66e-06    19s
  20   3.25430500e+04  3.25431419e+04  9.22e-09 7.28e-09  1.08e-06    19s
  21   3.25430993e+04  3.25431106e+04  1.15e-09 5.80e-09  1.34e-07    19s
  22   3.25431061e+04  3.25431072e+04  2.59e-10 1.73e-07  1.23e-08    20s
  23   3.25431061e+04  3.25431071e+04  1.21e-09 7.88e-08  1.15e-08    20s
  24   3.25431061e+04  3.25431071e+04  1.67e-09 3.30e-08  1.11e-08    20s
  25   3.25431061e+04  3.25431070e+04  1.71e-09 2.20e-08  1.10e-08    21s
  26   3.25431061e+04  3.25431070e+04  1.69e-09 1.70e-08  1.09e-08    21s
  27   3.25431061e+04  3.25431070e+04  2.37e-09 8.26e-09  1.08e-08    21s
  28   3.25431061e+04  3.25431070e+04  1.69e-09 5.82e-10  1.07e-08    21s
  29   3.25431061e+04  3.25431070e+04  2.98e-09 8.10e-10  1.06e-08    22s
  30   3.25431061e+04  3.25431070e+04  3.01e-09 6.92e-11  1.04e-08    22s
  31   3.25431061e+04  3.25431070e+04  2.93e-09 2.75e-09  1.03e-08    22s
  32   3.25431062e+04  3.25431070e+04  1.23e-07 6.91e-10  9.63e-09    22s
  33   3.25431064e+04  3.25431070e+04  9.21e-08 2.13e-10  7.14e-09    22s
  34   3.25431064e+04  3.25431070e+04  9.11e-08 3.91e-09  7.05e-09    23s
  35   3.25431065e+04  3.25431070e+04  8.59e-08 2.13e-09  6.30e-09    23s
  36   3.25431069e+04  3.25431070e+04  1.88e-08 6.40e-11  1.70e-09    23s
  37   3.25431069e+04  3.25431070e+04  1.89e-08 7.33e-10  1.70e-09    23s
  38   3.25431069e+04  3.25431070e+04  2.37e-07 9.56e-09  1.88e-09    24s
  39   3.25431069e+04  3.25431070e+04  2.36e-07 1.79e-08  1.82e-09    24s
  40   3.25431069e+04  3.25431070e+04  2.20e-07 9.35e-09  1.61e-09    24s
  41   3.25431070e+04  3.25431070e+04  9.01e-08 1.02e-09  6.22e-10    24s
  42   3.25431070e+04  3.25431070e+04  7.79e-08 4.74e-10  5.43e-10    25s
  43   3.25431070e+04  3.25431070e+04  6.17e-08 4.31e-09  4.63e-10    25s
  44   3.25431070e+04  3.25431070e+04  4.83e-08 1.10e-09  3.63e-10    25s
  45   3.25431070e+04  3.25431070e+04  2.78e-09 3.65e-11  1.42e-12    25s

Barrier solved model in 45 iterations and 25.36 seconds (12.26 work units)
Optimal objective 3.25431070e+04

